200
1 2
1 3
1 5
1 13
1 15
1 19
1 21
1 24
1 32
1 33
1 34
1 36
1 37
1 39
1 46
1 52
1 55
1 57
1 59
1 71
1 74
1 83
1 85
1 88
1 92
1 97
1 99
1 100
1 105
1 121
1 123
1 124
1 129
1 133
1 136
1 137
1 143
1 146
1 152
1 159
1 165
1 166
1 172
1 177
1 183
1 186
1 187
1 196
1 197
2 3
2 7
2 12
2 14
2 17
2 19
2 27
2 39
2 41
2 42
2 44
2 47
2 53
2 56
2 60
2 64
2 65
2 69
2 75
2 78
2 82
2 89
2 90
2 94
2 98
2 99
2 100
2 102
2 104
2 106
2 108
2 119
2 120
2 124
2 127
2 131
2 133
2 140
2 145
2 146
2 148
2 149
2 153
2 155
2 157
2 159
2 164
2 169
2 172
2 182
2 183
2 187
2 192
2 196
2 199
3 13
3 17
3 20
3 23
3 34
3 35
3 36
3 39
3 44
3 47
3 51
3 61
3 63
3 70
3 71
3 74
3 75
3 76
3 77
3 78
3 79
3 83
3 88
3 91
3 92
3 93
3 98
3 101
3 103
3 107
3 110
3 112
3 117
3 120
3 121
3 122
3 125
3 126
3 130
3 138
3 144
3 150
3 155
3 159
3 163
3 166
3 170
3 172
3 181
3 184
3 187
3 189
3 192
3 193
3 194
3 196
4 8
4 12
4 17
4 18
4 22
4 25
4 31
4 34
4 35
4 36
4 40
4 42
4 45
4 49
4 51
4 57
4 62
4 66
4 69
4 70
4 75
4 77
4 85
4 90
4 91
4 93
4 104
4 106
4 107
4 114
4 117
4 119
4 130
4 136
4 142
4 144
4 153
4 154
4 155
4 157
4 158
4 159
4 160
4 161
4 166
4 167
4 171
4 178
4 192
4 196
4 198
5 12
5 13
5 22
5 25
5 26
5 28
5 37
5 45
5 48
5 57
5 59
5 64
5 65
5 71
5 74
5 76
5 81
5 92
5 95
5 96
5 101
5 105
5 106
5 107
5 110
5 112
5 117
5 119
5 124
5 125
5 126
5 127
5 135
5 139
5 151
5 159
5 163
5 176
5 178
5 183
5 193
6 10
6 11
6 16
6 17
6 22
6 38
6 45
6 48
6 50
6 56
6 60
6 82
6 83
6 91
6 92
6 93
6 105
6 108
6 119
6 129
6 133
6 139
6 142
6 143
6 145
6 157
6 159
6 165
6 167
6 170
6 177
6 183
6 187
6 197
7 8
7 11
7 12
7 14
7 17
7 27
7 30
7 32
7 33
7 39
7 49
7 50
7 51
7 58
7 60
7 61
7 65
7 74
7 76
7 79
7 84
7 95
7 98
7 99
7 102
7 103
7 104
7 112
7 113
7 118
7 124
7 126
7 127
7 129
7 130
7 131
7 135
7 136
7 145
7 150
7 156
7 163
7 164
7 170
7 172
7 173
7 174
7 177
7 180
7 182
7 184
7 185
7 188
7 189
7 190
7 198
7 199
8 9
8 11
8 12
8 15
8 17
8 18
8 20
8 26
8 28
8 29
8 35
8 38
8 43
8 46
8 47
8 52
8 54
8 55
8 57
8 62
8 63
8 65
8 66
8 67
8 68
8 69
8 70
8 75
8 76
8 79
8 80
8 84
8 88
8 90
8 93
8 97
8 99
8 100
8 102
8 107
8 116
8 125
8 131
8 132
8 140
8 141
8 146
8 157
8 159
8 160
8 161
8 168
8 169
8 170
8 176
8 177
8 182
8 185
8 192
8 195
8 197
9 11
9 12
9 17
9 20
9 24
9 26
9 28
9 29
9 32
9 33
9 37
9 43
9 47
9 48
9 58
9 62
9 63
9 65
9 67
9 68
9 71
9 75
9 76
9 78
9 79
9 86
9 93
9 97
9 99
9 101
9 107
9 113
9 115
9 116
9 121
9 122
9 127
9 130
9 142
9 144
9 149
9 161
9 170
9 183
9 184
9 187
9 194
9 195
9 199
9 200
10 15
10 17
10 20
10 22
10 34
10 37
10 43
10 48
10 56
10 59
10 68
10 73
10 78
10 79
10 81
10 87
10 89
10 93
10 101
10 108
10 117
10 121
10 126
10 133
10 142
10 147
10 153
10 157
10 158
10 160
10 161
10 162
10 166
10 174
10 176
10 179
10 183
10 186
10 187
10 196
10 199
11 23
11 24
11 25
11 26
11 31
11 42
11 45
11 46
11 47
11 54
11 55
11 56
11 66
11 76
11 77
11 80
11 85
11 93
11 99
11 100
11 103
11 104
11 107
11 110
11 114
11 123
11 124
11 133
11 134
11 138
11 147
11 155
11 156
11 159
11 166
11 167
11 169
11 171
11 175
11 177
11 178
11 186
11 188
11 189
11 190
11 199
12 14
12 17
12 19
12 26
12 28
12 33
12 42
12 43
12 44
12 46
12 50
12 54
12 59
12 63
12 65
12 71
12 73
12 78
12 81
12 87
12 91
12 95
12 100
12 101
12 107
12 109
12 110
12 117
12 118
12 121
12 123
12 125
12 127
12 133
12 134
12 135
12 142
12 144
12 149
12 162
12 171
12 173
12 179
12 185
12 187
12 191
12 192
12 193
12 194
13 15
13 16
13 22
13 24
13 37
13 38
13 39
13 40
13 43
13 44
13 48
13 53
13 56
13 65
13 66
13 67
13 68
13 70
13 75
13 77
13 79
13 80
13 84
13 86
13 92
13 94
13 98
13 102
13 103
13 109
13 111
13 112
13 115
13 132
13 134
13 136
13 139
13 142
13 145
13 148
13 149
13 156
13 158
13 162
13 163
13 164
13 165
13 172
13 175
13 183
13 193
13 194
13 200
14 16
14 18
14 26
14 31
14 33
14 42
14 47
14 48
14 56
14 60
14 62
14 63
14 67
14 68
14 72
14 76
14 79
14 87
14 93
14 94
14 97
14 98
14 103
14 111
14 116
14 119
14 122
14 127
14 130
14 139
14 142
14 153
14 154
14 164
14 165
14 167
14 171
14 177
14 180
14 185
14 187
14 188
14 192
14 194
14 197
14 198
15 21
15 23
15 24
15 25
15 26
15 29
15 38
15 49
15 56
15 57
15 59
15 61
15 65
15 68
15 70
15 73
15 75
15 78
15 80
15 87
15 90
15 92
15 98
15 112
15 124
15 126
15 127
15 131
15 134
15 136
15 141
15 147
15 150
15 153
15 155
15 165
15 177
15 180
15 182
15 187
15 200
16 17
16 19
16 21
16 44
16 46
16 48
16 49
16 55
16 58
16 63
16 65
16 73
16 74
16 87
16 88
16 89
16 90
16 98
16 99
16 101
16 102
16 105
16 110
16 115
16 120
16 139
16 141
16 144
16 145
16 151
16 154
16 159
16 162
16 164
16 173
16 176
16 178
16 187
16 192
17 19
17 23
17 26
17 27
17 28
17 30
17 31
17 32
17 35
17 36
17 38
17 52
17 54
17 55
17 59
17 67
17 69
17 72
17 74
17 78
17 80
17 85
17 88
17 94
17 102
17 103
17 110
17 113
17 114
17 118
17 121
17 125
17 130
17 135
17 137
17 139
17 142
17 144
17 152
17 164
17 169
17 170
17 173
17 176
17 179
17 185
17 187
17 190
17 191
17 194
17 195
17 196
17 199
18 22
18 23
18 24
18 25
18 32
18 34
18 39
18 46
18 48
18 50
18 52
18 59
18 64
18 67
18 70
18 71
18 73
18 75
18 81
18 93
18 95
18 99
18 100
18 109
18 111
18 112
18 120
18 121
18 125
18 128
18 133
18 136
18 141
18 145
18 152
18 173
18 176
18 186
18 188
18 190
18 196
19 24
19 27
19 43
19 47
19 51
19 52
19 54
19 58
19 65
19 67
19 68
19 71
19 73
19 84
19 85
19 88
19 91
19 92
19 96
19 99
19 107
19 112
19 127
19 128
19 134
19 136
19 137
19 143
19 145
19 148
19 152
19 156
19 158
19 161
19 162
19 166
19 169
19 170
19 172
19 174
19 187
19 192
19 197
20 27
20 29
20 30
20 31
20 34
20 38
20 48
20 54
20 55
20 57
20 61
20 63
20 68
20 69
20 72
20 73
20 75
20 76
20 81
20 82
20 87
20 88
20 91
20 103
20 104
20 105
20 107
20 111
20 115
20 119
20 125
20 138
20 142
20 143
20 144
20 145
20 146
20 151
20 153
20 155
20 157
20 167
20 168
20 171
20 179
20 180
20 182
20 191
20 198
21 23
21 24
21 26
21 27
21 30
21 31
21 39
21 41
21 42
21 47
21 50
21 59
21 61
21 64
21 65
21 73
21 74
21 94
21 103
21 104
21 106
21 108
21 109
21 112
21 115
21 122
21 125
21 127
21 130
21 131
21 133
21 136
21 145
21 147
21 148
21 155
21 156
21 158
21 159
21 166
21 172
21 173
21 174
21 176
21 182
21 190
21 194
21 197
22 24
22 25
22 26
22 28
22 29
22 30
22 31
22 32
22 36
22 42
22 43
22 46
22 49
22 52
22 53
22 56
22 58
22 62
22 67
22 75
22 76
22 78
22 80
22 82
22 88
22 90
22 92
22 93
22 95
22 97
22 99
22 100
22 110
22 113
22 117
22 118
22 122
22 127
22 128
22 132
22 140
22 141
22 143
22 144
22 145
22 150
22 152
22 158
22 163
22 166
22 167
22 179
22 192
23 25
23 27
23 38
23 43
23 46
23 48
23 51
23 53
23 59
23 63
23 68
23 72
23 77
23 80
23 83
23 86
23 87
23 91
23 92
23 96
23 98
23 105
23 117
23 118
23 126
23 132
23 135
23 154
23 163
23 168
23 170
23 171
23 172
23 175
23 179
23 180
23 182
23 185
23 192
23 193
23 199
24 25
24 37
24 40
24 45
24 46
24 48
24 49
24 50
24 56
24 57
24 59
24 60
24 62
24 63
24 64
24 72
24 75
24 76
24 79
24 95
24 99
24 108
24 119
24 122
24 125
24 126
24 128
24 130
24 131
24 134
24 139
24 143
24 150
24 151
24 153
24 156
24 157
24 164
24 166
24 169
24 175
24 176
24 179
24 180
24 187
24 189
24 191
24 194
24 198
25 38
25 48
25 49
25 51
25 59
25 68
25 73
25 75
25 78
25 79
25 81
25 88
25 90
25 91
25 94
25 98
25 100
25 109
25 110
25 114
25 117
25 122
25 126
25 128
25 129
25 134
25 137
25 139
25 141
25 142
25 143
25 149
25 157
25 158
25 160
25 161
25 164
25 165
25 171
25 172
25 179
25 182
25 190
25 191
25 193
26 29
26 31
26 41
26 44
26 46
26 49
26 51
26 54
26 55
26 62
26 63
26 66
26 67
26 70
26 75
26 79
26 83
26 85
26 86
26 92
26 95
26 97
26 99
26 100
26 102
26 110
26 111
26 115
26 123
26 128
26 131
26 133
26 135
26 136
26 137
26 138
26 144
26 147
26 148
26 158
26 163
26 165
26 174
26 181
26 187
26 188
26 191
26 195
26 196
26 198
26 200
27 28
27 29
27 30
27 31
27 33
27 38
27 40
27 41
27 44
27 50
27 51
27 52
27 56
27 57
27 66
27 69
27 76
27 83
27 91
27 101
27 103
27 114
27 117
27 121
27 122
27 132
27 140
27 144
27 145
27 150
27 159
27 162
27 165
27 169
27 170
27 175
27 178
27 179
27 181
27 186
27 189
27 191
27 194
27 196
27 197
27 200
28 33
28 35
28 37
28 42
28 43
28 49
28 53
28 58
28 64
28 73
28 76
28 77
28 79
28 83
28 88
28 93
28 95
28 104
28 105
28 108
28 109
28 114
28 116
28 118
28 120
28 122
28 128
28 136
28 137
28 141
28 144
28 145
28 161
28 165
28 169
28 170
28 173
28 175
28 182
28 187
28 188
28 193
28 196
28 198
29 30
29 33
29 34
29 37
29 39
29 44
29 52
29 54
29 60
29 63
29 66
29 84
29 91
29 92
29 95
29 96
29 97
29 98
29 115
29 117
29 125
29 126
29 129
29 147
29 153
29 160
29 162
29 165
29 173
29 177
29 182
29 183
29 190
29 194
29 196
30 31
30 41
30 43
30 44
30 47
30 52
30 54
30 55
30 56
30 57
30 61
30 68
30 74
30 83
30 92
30 93
30 97
30 98
30 104
30 106
30 109
30 110
30 119
30 122
30 126
30 128
30 129
30 138
30 140
30 143
30 150
30 153
30 174
30 175
30 184
30 187
30 197
30 200
31 33
31 37
31 38
31 48
31 52
31 57
31 58
31 61
31 63
31 66
31 67
31 71
31 75
31 77
31 82
31 90
31 94
31 98
31 100
31 101
31 102
31 104
31 106
31 107
31 109
31 110
31 114
31 118
31 119
31 123
31 125
31 127
31 133
31 134
31 135
31 138
31 145
31 146
31 150
31 153
31 155
31 160
31 174
31 179
31 184
31 191
31 198
32 40
32 42
32 45
32 47
32 49
32 50
32 54
32 56
32 60
32 64
32 67
32 77
32 79
32 82
32 87
32 88
32 90
32 95
32 104
32 108
32 109
32 110
32 112
32 113
32 114
32 116
32 118
32 120
32 122
32 123
32 128
32 136
32 139
32 144
32 147
32 151
32 152
32 155
32 168
32 173
32 176
32 180
32 185
32 189
32 196
32 197
32 200
33 34
33 35
33 47
33 49
33 53
33 62
33 64
33 69
33 70
33 71
33 74
33 77
33 78
33 89
33 92
33 95
33 100
33 101
33 102
33 104
33 105
33 113
33 122
33 128
33 133
33 135
33 136
33 138
33 140
33 148
33 157
33 162
33 176
33 177
33 184
33 187
33 189
33 190
33 200
34 35
34 38
34 47
34 51
34 58
34 59
34 63
34 70
34 73
34 78
34 80
34 81
34 84
34 87
34 91
34 92
34 96
34 98
34 99
34 102
34 112
34 113
34 115
34 119
34 120
34 122
34 124
34 126
34 133
34 137
34 141
34 145
34 154
34 158
34 168
34 169
34 171
34 176
34 180
34 181
34 184
34 192
34 194
34 199
35 40
35 44
35 51
35 52
35 60
35 66
35 68
35 73
35 81
35 82
35 87
35 88
35 93
35 94
35 99
35 100
35 103
35 104
35 105
35 109
35 110
35 114
35 133
35 136
35 138
35 141
35 143
35 151
35 161
35 162
35 167
35 168
35 172
35 173
35 177
35 180
35 182
35 185
35 190
35 196
35 197
36 49
36 54
36 59
36 62
36 64
36 65
36 66
36 68
36 70
36 71
36 74
36 80
36 81
36 82
36 89
36 90
36 94
36 102
36 103
36 104
36 108
36 109
36 120
36 121
36 123
36 135
36 141
36 142
36 150
36 160
36 161
36 169
36 172
36 180
36 183
36 188
36 189
36 192
36 193
36 195
36 198
37 39
37 42
37 45
37 57
37 66
37 70
37 71
37 74
37 86
37 90
37 97
37 99
37 104
37 107
37 109
37 112
37 118
37 119
37 122
37 133
37 136
37 137
37 139
37 140
37 141
37 142
37 144
37 145
37 146
37 151
37 154
37 159
37 160
37 163
37 168
37 175
37 181
37 182
37 189
37 192
37 197
38 39
38 41
38 42
38 44
38 51
38 57
38 61
38 65
38 67
38 73
38 74
38 78
38 79
38 80
38 85
38 86
38 98
38 101
38 107
38 112
38 117
38 119
38 121
38 129
38 136
38 142
38 143
38 145
38 153
38 160
38 162
38 163
38 164
38 180
38 185
38 186
38 188
38 192
38 195
38 196
38 198
39 42
39 46
39 54
39 55
39 56
39 59
39 63
39 67
39 69
39 70
39 71
39 73
39 74
39 78
39 90
39 93
39 94
39 110
39 118
39 123
39 126
39 128
39 133
39 137
39 140
39 144
39 157
39 160
39 161
39 165
39 169
39 171
39 172
39 173
39 180
39 184
39 192
39 194
40 43
40 44
40 48
40 53
40 54
40 58
40 62
40 65
40 72
40 78
40 79
40 80
40 82
40 83
40 86
40 87
40 88
40 90
40 91
40 94
40 103
40 120
40 121
40 122
40 123
40 130
40 133
40 135
40 139
40 149
40 150
40 151
40 155
40 164
40 165
40 171
40 176
40 180
40 181
40 187
40 191
41 42
41 44
41 48
41 50
41 52
41 53
41 55
41 60
41 61
41 64
41 76
41 79
41 83
41 86
41 87
41 91
41 93
41 94
41 96
41 97
41 102
41 108
41 109
41 111
41 113
41 122
41 132
41 141
41 142
41 144
41 149
41 156
41 157
41 158
41 161
41 163
41 164
41 173
41 180
41 182
41 184
41 185
41 187
41 189
41 195
41 197
41 199
42 43
42 53
42 56
42 57
42 59
42 63
42 65
42 67
42 75
42 85
42 86
42 93
42 95
42 97
42 99
42 102
42 104
42 122
42 134
42 135
42 142
42 147
42 149
42 151
42 155
42 157
42 159
42 161
42 163
42 169
42 170
42 175
42 176
42 177
42 178
42 184
42 186
42 191
42 192
42 197
43 46
43 50
43 55
43 59
43 60
43 61
43 62
43 64
43 71
43 80
43 81
43 90
43 91
43 93
43 95
43 101
43 102
43 103
43 114
43 115
43 120
43 122
43 127
43 129
43 141
43 142
43 144
43 154
43 155
43 157
43 159
43 161
43 166
43 167
43 170
43 171
43 172
43 173
43 177
43 178
43 182
43 189
43 195
43 198
44 46
44 47
44 49
44 53
44 56
44 57
44 58
44 61
44 64
44 74
44 81
44 82
44 88
44 91
44 97
44 106
44 111
44 112
44 114
44 116
44 121
44 122
44 125
44 133
44 138
44 148
44 153
44 160
44 169
44 170
44 171
44 174
44 180
44 188
44 196
45 49
45 50
45 51
45 56
45 59
45 63
45 64
45 69
45 72
45 80
45 86
45 88
45 89
45 93
45 105
45 108
45 117
45 123
45 128
45 130
45 134
45 138
45 139
45 140
45 141
45 142
45 145
45 146
45 147
45 148
45 149
45 156
45 159
45 162
45 173
45 179
45 191
45 194
45 197
45 199
46 47
46 49
46 54
46 56
46 59
46 60
46 61
46 63
46 65
46 66
46 69
46 74
46 76
46 81
46 83
46 91
46 92
46 94
46 99
46 103
46 106
46 109
46 111
46 112
46 115
46 118
46 124
46 128
46 130
46 136
46 137
46 138
46 140
46 142
46 144
46 146
46 149
46 150
46 152
46 158
46 160
46 162
46 165
46 168
46 172
46 174
46 177
46 181
46 186
46 193
46 198
47 51
47 59
47 64
47 65
47 71
47 73
47 84
47 86
47 87
47 92
47 94
47 100
47 107
47 113
47 124
47 127
47 129
47 132
47 133
47 134
47 135
47 137
47 139
47 140
47 151
47 154
47 160
47 167
47 171
47 178
47 181
47 183
47 184
47 185
47 189
47 192
48 51
48 52
48 60
48 65
48 67
48 68
48 71
48 74
48 77
48 82
48 90
48 93
48 98
48 105
48 106
48 108
48 110
48 111
48 112
48 113
48 118
48 121
48 125
48 143
48 144
48 145
48 151
48 158
48 160
48 163
48 166
48 168
48 173
48 180
48 184
48 186
48 187
48 189
48 192
48 195
48 197
48 198
49 62
49 63
49 65
49 70
49 71
49 73
49 75
49 79
49 99
49 106
49 111
49 116
49 119
49 128
49 132
49 134
49 140
49 142
49 149
49 151
49 154
49 155
49 159
49 160
49 185
49 188
49 194
49 196
50 55
50 57
50 61
50 64
50 78
50 82
50 86
50 90
50 91
50 97
50 99
50 101
50 104
50 107
50 109
50 110
50 115
50 116
50 117
50 119
50 124
50 126
50 127
50 130
50 131
50 135
50 137
50 139
50 142
50 143
50 144
50 149
50 153
50 160
50 164
50 165
50 166
50 167
50 168
50 169
50 175
50 183
50 185
50 186
50 187
50 188
50 196
50 198
50 199
51 54
51 55
51 58
51 60
51 62
51 72
51 73
51 76
51 77
51 80
51 85
51 86
51 91
51 93
51 96
51 103
51 104
51 106
51 111
51 112
51 124
51 128
51 140
51 151
51 157
51 164
51 166
51 169
51 178
51 183
51 186
51 194
51 196
52 56
52 69
52 72
52 75
52 82
52 91
52 93
52 96
52 102
52 111
52 113
52 118
52 126
52 132
52 135
52 137
52 139
52 143
52 145
52 147
52 158
52 159
52 161
52 167
52 168
52 170
52 172
52 191
52 200
53 55
53 59
53 62
53 68
53 69
53 79
53 80
53 86
53 87
53 93
53 94
53 96
53 102
53 104
53 106
53 110
53 111
53 113
53 115
53 135
53 136
53 143
53 144
53 149
53 153
53 154
53 200
54 57
54 67
54 69
54 74
54 75
54 78
54 82
54 85
54 86
54 87
54 91
54 92
54 97
54 98
54 101
54 104
54 111
54 113
54 115
54 118
54 125
54 126
54 134
54 137
54 144
54 157
54 159
54 160
54 170
54 174
54 175
54 177
54 181
54 183
54 191
54 193
54 198
55 59
55 61
55 63
55 64
55 65
55 69
55 72
55 77
55 80
55 81
55 84
55 85
55 86
55 87
55 95
55 106
55 107
55 109
55 110
55 116
55 120
55 122
55 126
55 129
55 130
55 136
55 143
55 150
55 151
55 155
55 159
55 161
55 164
55 167
55 173
55 177
55 178
55 182
55 183
55 187
55 188
55 195
55 196
55 200
56 61
56 75
56 76
56 81
56 82
56 85
56 87
56 92
56 99
56 101
56 113
56 115
56 117
56 121
56 122
56 126
56 132
56 133
56 138
56 141
56 147
56 153
56 157
56 169
56 171
56 175
56 182
56 184
56 185
56 187
56 189
56 200
57 74
57 78
57 79
57 83
57 88
57 100
57 103
57 106
57 107
57 110
57 113
57 117
57 120
57 121
57 122
57 127
57 131
57 132
57 140
57 143
57 144
57 146
57 151
57 155
57 156
57 168
57 173
57 185
57 186
57 187
57 190
57 193
57 195
58 65
58 68
58 77
58 79
58 84
58 91
58 94
58 97
58 98
58 101
58 103
58 104
58 107
58 109
58 110
58 114
58 116
58 118
58 123
58 126
58 133
58 137
58 139
58 142
58 143
58 149
58 153
58 156
58 163
58 164
58 165
58 174
58 177
58 179
58 180
58 183
58 184
58 195
58 199
59 67
59 70
59 73
59 75
59 80
59 81
59 82
59 84
59 87
59 88
59 91
59 101
59 106
59 107
59 110
59 113
59 114
59 118
59 122
59 125
59 128
59 137
59 139
59 140
59 143
59 144
59 150
59 164
59 170
59 172
59 175
59 177
59 182
59 186
59 192
59 194
60 64
60 71
60 73
60 75
60 77
60 80
60 96
60 105
60 106
60 111
60 115
60 119
60 121
60 124
60 125
60 133
60 139
60 140
60 141
60 146
60 149
60 150
60 153
60 154
60 157
60 158
60 161
60 162
60 163
60 164
60 168
60 169
60 170
60 175
60 176
60 195
60 199
60 200
61 67
61 72
61 77
61 78
61 79
61 80
61 81
61 82
61 83
61 87
61 91
61 92
61 93
61 97
61 107
61 108
61 109
61 117
61 129
61 131
61 133
61 134
61 139
61 148
61 151
61 156
61 161
61 163
61 166
61 180
61 182
61 185
61 186
61 190
62 76
62 80
62 81
62 97
62 107
62 110
62 112
62 114
62 115
62 116
62 120
62 124
62 125
62 127
62 130
62 138
62 144
62 152
62 153
62 162
62 169
62 173
62 175
62 182
62 186
62 191
62 192
62 197
62 198
63 64
63 68
63 73
63 74
63 95
63 101
63 109
63 111
63 113
63 117
63 123
63 125
63 130
63 135
63 143
63 147
63 148
63 153
63 156
63 159
63 160
63 161
63 164
63 167
63 181
63 186
63 189
63 195
63 198
63 200
64 65
64 66
64 70
64 71
64 77
64 79
64 98
64 104
64 105
64 109
64 117
64 123
64 124
64 128
64 131
64 133
64 138
64 144
64 145
64 147
64 152
64 154
64 163
64 165
64 167
64 168
64 177
64 181
64 182
64 189
64 197
65 70
65 77
65 78
65 79
65 80
65 86
65 95
65 98
65 100
65 103
65 107
65 108
65 109
65 113
65 114
65 116
65 122
65 123
65 124
65 125
65 149
65 166
65 169
65 178
65 179
65 180
65 182
65 186
65 187
65 188
65 191
65 196
66 69
66 70
66 71
66 72
66 79
66 81
66 85
66 88
66 90
66 95
66 101
66 105
66 109
66 110
66 112
66 113
66 116
66 119
66 125
66 130
66 131
66 140
66 147
66 148
66 153
66 156
66 160
66 161
66 172
66 180
66 183
66 198
66 199
66 200
67 68
67 70
67 71
67 74
67 87
67 93
67 110
67 111
67 116
67 125
67 131
67 133
67 134
67 135
67 142
67 147
67 154
67 155
67 161
67 163
67 167
67 175
67 176
67 189
67 190
67 191
67 195
68 74
68 82
68 84
68 86
68 94
68 96
68 98
68 109
68 110
68 112
68 117
68 120
68 128
68 135
68 144
68 149
68 152
68 163
68 167
68 176
68 177
68 178
68 180
68 182
68 186
68 190
69 81
69 92
69 99
69 101
69 103
69 104
69 107
69 108
69 119
69 121
69 123
69 131
69 136
69 138
69 150
69 159
69 161
69 170
69 173
69 174
69 180
69 182
69 187
69 190
70 75
70 77
70 78
70 80
70 81
70 83
70 87
70 88
70 89
70 90
70 92
70 93
70 94
70 96
70 101
70 105
70 107
70 108
70 110
70 113
70 114
70 118
70 119
70 120
70 127
70 132
70 133
70 138
70 139
70 147
70 154
70 157
70 158
70 159
70 165
70 167
70 168
70 171
70 185
70 188
70 195
70 196
70 199
71 72
71 82
71 84
71 85
71 91
71 92
71 93
71 95
71 102
71 103
71 110
71 117
71 129
71 130
71 133
71 136
71 139
71 143
71 148
71 150
71 151
71 152
71 155
71 167
71 168
71 169
71 174
71 175
71 177
71 178
71 179
71 184
71 186
72 76
72 77
72 78
72 79
72 84
72 87
72 88
72 90
72 91
72 96
72 100
72 101
72 105
72 115
72 116
72 117
72 120
72 126
72 128
72 129
72 131
72 135
72 148
72 150
72 156
72 159
72 160
72 170
72 171
72 173
72 178
72 179
72 180
72 182
72 183
72 184
72 186
72 192
73 74
73 75
73 83
73 84
73 89
73 91
73 99
73 104
73 109
73 113
73 116
73 119
73 123
73 125
73 131
73 140
73 146
73 152
73 153
73 155
73 157
73 162
73 164
73 165
73 166
73 168
73 172
73 179
73 180
73 190
73 196
74 82
74 88
74 93
74 100
74 106
74 119
74 123
74 132
74 135
74 137
74 138
74 148
74 152
74 161
74 162
74 173
74 175
74 182
74 184
74 187
74 199
74 200
75 77
75 80
75 82
75 87
75 90
75 98
75 101
75 102
75 105
75 107
75 110
75 115
75 120
75 127
75 133
75 135
75 145
75 151
75 154
75 170
75 176
75 181
75 183
75 184
75 188
75 190
75 191
75 195
76 78
76 84
76 87
76 90
76 101
76 103
76 105
76 106
76 107
76 108
76 114
76 116
76 122
76 130
76 133
76 134
76 135
76 137
76 142
76 143
76 145
76 146
76 148
76 150
76 151
76 152
76 155
76 159
76 160
76 166
76 167
76 169
76 178
76 185
76 187
76 189
76 194
77 79
77 87
77 89
77 90
77 109
77 115
77 119
77 121
77 122
77 125
77 128
77 131
77 136
77 138
77 145
77 147
77 152
77 166
77 168
77 170
77 175
77 180
77 193
77 198
78 83
78 85
78 87
78 91
78 96
78 98
78 107
78 109
78 110
78 113
78 115
78 119
78 125
78 127
78 133
78 143
78 149
78 150
78 151
78 152
78 158
78 170
78 171
78 174
78 177
78 189
78 197
78 200
79 81
79 84
79 87
79 95
79 96
79 97
79 110
79 112
79 113
79 114
79 115
79 121
79 122
79 127
79 128
79 129
79 131
79 132
79 134
79 142
79 148
79 149
79 154
79 161
79 163
79 172
79 175
79 176
79 178
79 180
79 182
79 186
79 188
79 189
79 191
79 196
79 197
80 81
80 82
80 86
80 96
80 99
80 109
80 114
80 115
80 118
80 124
80 127
80 129
80 131
80 144
80 156
80 157
80 163
80 170
80 172
80 174
80 176
80 179
80 186
80 198
80 200
81 82
81 85
81 95
81 96
81 98
81 99
81 111
81 112
81 115
81 116
81 121
81 123
81 124
81 130
81 134
81 138
81 140
81 143
81 148
81 152
81 154
81 156
81 158
81 162
81 167
81 168
81 170
81 171
81 175
81 178
81 181
81 182
81 184
81 187
81 190
81 199
82 87
82 95
82 98
82 100
82 103
82 106
82 108
82 115
82 117
82 119
82 122
82 132
82 134
82 142
82 159
82 163
82 166
82 167
82 169
82 173
82 181
82 182
82 187
82 191
82 193
82 194
82 195
82 196
82 199
83 84
83 86
83 88
83 93
83 95
83 105
83 111
83 122
83 124
83 127
83 129
83 141
83 143
83 145
83 160
83 162
83 164
83 166
83 169
83 170
83 171
83 177
83 178
83 179
83 185
83 189
83 200
84 87
84 88
84 96
84 97
84 101
84 109
84 111
84 112
84 117
84 118
84 126
84 127
84 129
84 133
84 137
84 146
84 160
84 161
84 163
84 164
84 174
84 176
84 180
84 186
84 187
84 200
85 86
85 95
85 97
85 102
85 104
85 105
85 111
85 120
85 121
85 122
85 128
85 134
85 148
85 149
85 156
85 159
85 162
85 163
85 165
85 168
85 170
85 175
85 177
85 178
85 187
85 189
85 193
86 88
86 89
86 96
86 99
86 101
86 105
86 113
86 120
86 128
86 134
86 142
86 150
86 159
86 163
86 164
86 170
86 171
86 173
86 175
86 183
86 189
86 191
86 195
86 200
87 89
87 91
87 101
87 108
87 111
87 115
87 117
87 122
87 124
87 129
87 136
87 139
87 140
87 147
87 153
87 157
87 160
87 171
87 174
87 177
87 190
87 192
88 90
88 106
88 111
88 115
88 117
88 119
88 138
88 139
88 147
88 148
88 150
88 151
88 154
88 156
88 157
88 169
88 171
88 176
88 180
88 185
88 197
88 199
89 93
89 96
89 112
89 116
89 118
89 121
89 122
89 125
89 129
89 136
89 143
89 146
89 147
89 158
89 159
89 164
89 167
89 171
89 172
89 176
89 178
89 179
89 181
89 183
89 186
89 188
89 193
90 97
90 99
90 106
90 107
90 110
90 115
90 121
90 124
90 125
90 133
90 140
90 142
90 144
90 147
90 149
90 153
90 164
90 177
90 179
90 181
90 183
90 185
90 188
90 189
91 92
91 97
91 100
91 102
91 108
91 121
91 122
91 127
91 137
91 139
91 142
91 146
91 152
91 154
91 157
91 159
91 166
91 168
91 172
91 177
91 178
91 180
91 185
91 193
91 194
91 195
92 94
92 95
92 99
92 100
92 105
92 106
92 110
92 113
92 118
92 119
92 120
92 121
92 123
92 125
92 126
92 127
92 129
92 134
92 138
92 141
92 148
92 153
92 154
92 158
92 172
92 173
92 175
92 186
92 189
92 193
92 194
93 95
93 101
93 103
93 110
93 111
93 112
93 115
93 117
93 120
93 125
93 130
93 131
93 132
93 139
93 141
93 143
93 148
93 149
93 153
93 155
93 156
93 157
93 162
93 163
93 164
93 165
93 167
93 171
93 185
93 195
93 197
93 200
94 97
94 99
94 100
94 104
94 105
94 107
94 110
94 116
94 119
94 126
94 128
94 140
94 142
94 148
94 154
94 156
94 163
94 164
94 165
94 179
94 182
94 187
94 189
94 190
94 192
94 195
94 197
95 100
95 107
95 111
95 116
95 119
95 121
95 122
95 124
95 126
95 128
95 129
95 134
95 135
95 136
95 138
95 139
95 140
95 143
95 153
95 158
95 159
95 165
95 169
95 181
95 183
95 186
95 187
95 191
95 192
95 193
95 195
96 98
96 102
96 103
96 105
96 107
96 112
96 113
96 114
96 116
96 122
96 124
96 125
96 129
96 130
96 133
96 140
96 149
96 150
96 151
96 161
96 162
96 163
96 164
96 179
96 180
96 184
96 186
96 187
96 193
96 194
97 99
97 103
97 107
97 111
97 113
97 116
97 118
97 122
97 125
97 129
97 133
97 136
97 137
97 142
97 143
97 147
97 150
97 153
97 156
97 159
97 165
97 167
97 183
97 185
97 197
97 198
97 199
98 102
98 103
98 105
98 117
98 118
98 119
98 120
98 128
98 129
98 132
98 133
98 142
98 145
98 146
98 149
98 150
98 152
98 154
98 155
98 157
98 160
98 161
98 171
98 176
98 179
98 181
98 191
98 195
98 199
99 102
99 107
99 121
99 123
99 125
99 127
99 134
99 138
99 139
99 140
99 142
99 148
99 149
99 150
99 154
99 171
99 177
99 185
99 188
99 195
99 196
99 199
99 200
100 102
100 104
100 105
100 107
100 110
100 113
100 114
100 115
100 116
100 127
100 128
100 130
100 132
100 136
100 137
100 139
100 142
100 146
100 148
100 154
100 157
100 158
100 165
100 166
100 171
100 172
100 179
100 183
100 185
100 187
100 189
100 192
100 196
101 104
101 105
101 107
101 109
101 116
101 118
101 120
101 122
101 127
101 130
101 131
101 133
101 134
101 135
101 138
101 142
101 144
101 145
101 148
101 150
101 154
101 158
101 165
101 168
101 172
101 173
101 177
101 179
101 186
101 188
101 194
101 195
101 196
101 197
101 198
102 105
102 116
102 118
102 119
102 130
102 132
102 151
102 152
102 153
102 166
102 170
102 172
102 173
102 177
102 178
102 179
102 182
102 185
102 188
102 190
102 200
103 107
103 109
103 132
103 141
103 142
103 143
103 146
103 152
103 153
103 156
103 157
103 161
103 166
103 167
103 173
103 178
103 181
103 185
103 186
103 187
103 195
103 197
104 110
104 111
104 114
104 124
104 131
104 135
104 138
104 140
104 144
104 162
104 163
104 167
104 170
104 173
104 176
104 188
104 192
104 193
104 195
104 196
105 106
105 109
105 116
105 122
105 123
105 127
105 129
105 130
105 150
105 157
105 162
105 167
105 172
105 173
105 174
105 182
105 184
105 186
105 196
105 199
106 107
106 110
106 112
106 116
106 117
106 124
106 125
106 135
106 143
106 152
106 156
106 157
106 159
106 165
106 170
106 171
106 173
106 179
106 186
106 188
106 192
106 195
106 198
106 200
107 125
107 126
107 127
107 130
107 147
107 152
107 154
107 158
107 164
107 166
107 168
107 172
107 174
107 179
107 180
107 182
107 184
107 196
108 109
108 112
108 117
108 127
108 128
108 129
108 136
108 142
108 158
108 167
108 169
108 171
108 175
108 177
108 179
108 185
108 188
108 194
108 196
109 110
109 117
109 118
109 123
109 134
109 137
109 143
109 150
109 151
109 153
109 155
109 157
109 160
109 165
109 167
109 169
109 174
109 181
109 185
109 186
109 190
109 191
109 194
109 195
109 198
110 112
110 117
110 121
110 123
110 126
110 128
110 129
110 132
110 136
110 138
110 139
110 141
110 143
110 147
110 148
110 153
110 160
110 161
110 166
110 167
110 176
110 177
110 183
110 184
110 186
110 188
110 190
110 192
110 193
110 198
111 115
111 118
111 122
111 125
111 126
111 127
111 129
111 131
111 133
111 135
111 147
111 148
111 151
111 152
111 154
111 159
111 161
111 162
111 166
111 168
111 172
111 183
111 194
111 200
112 113
112 121
112 122
112 131
112 133
112 135
112 138
112 143
112 146
112 150
112 153
112 156
112 158
112 160
112 161
112 163
112 166
112 170
112 172
112 178
112 181
112 182
112 188
112 191
112 195
112 197
112 200
113 114
113 115
113 127
113 128
113 130
113 131
113 132
113 135
113 139
113 140
113 143
113 144
113 150
113 152
113 156
113 161
113 164
113 165
113 174
113 175
113 182
113 184
113 186
113 193
113 196
114 116
114 121
114 131
114 143
114 145
114 148
114 166
114 167
114 170
114 171
114 174
114 181
114 184
114 187
114 188
114 198
115 116
115 121
115 126
115 127
115 131
115 141
115 144
115 150
115 157
115 165
115 167
115 170
115 171
115 173
115 176
115 181
115 182
115 183
115 188
115 189
115 191
115 197
116 118
116 125
116 130
116 135
116 137
116 141
116 143
116 144
116 145
116 146
116 148
116 150
116 162
116 163
116 166
116 187
116 189
116 191
116 193
117 120
117 122
117 123
117 130
117 131
117 141
117 150
117 157
117 160
117 164
117 167
117 177
117 180
117 187
117 189
117 192
117 196
118 119
118 120
118 124
118 127
118 136
118 140
118 143
118 144
118 150
118 152
118 153
118 159
118 160
118 161
118 170
118 177
118 186
118 190
118 192
118 193
118 195
119 125
119 133
119 138
119 141
119 143
119 149
119 152
119 170
119 171
119 175
119 178
119 181
119 184
119 192
119 195
119 199
120 123
120 127
120 129
120 130
120 134
120 143
120 145
120 149
120 158
120 160
120 161
120 164
120 167
120 171
120 174
120 179
120 184
120 195
120 200
121 124
121 125
121 127
121 130
121 138
121 152
121 153
121 154
121 157
121 161
121 165
121 168
121 180
121 187
121 191
121 197
122 131
122 132
122 137
122 139
122 141
122 142
122 144
122 151
122 152
122 157
122 159
122 165
122 166
122 168
122 171
122 173
122 177
122 178
122 181
122 182
122 188
122 193
122 196
122 197
123 150
123 151
123 152
123 156
123 168
123 172
123 173
123 179
123 188
123 193
123 198
124 133
124 137
124 138
124 140
124 149
124 157
124 160
124 163
124 165
124 175
124 176
124 178
124 179
124 190
124 194
124 196
124 197
124 199
125 129
125 131
125 134
125 136
125 138
125 142
125 162
125 164
125 166
125 167
125 173
125 177
125 178
125 180
125 182
125 186
125 189
125 200
126 127
126 129
126 130
126 132
126 136
126 141
126 142
126 149
126 165
126 168
126 169
126 170
126 187
126 189
126 192
127 128
127 130
127 146
127 147
127 153
127 157
127 161
127 164
127 167
127 172
127 173
127 174
127 175
127 179
127 180
127 182
127 184
127 185
127 186
127 187
128 129
128 130
128 137
128 143
128 144
128 155
128 159
128 166
128 170
128 171
128 173
128 175
128 176
128 179
128 181
128 182
128 189
128 191
128 192
128 194
128 197
128 199
129 141
129 145
129 155
129 165
129 169
129 170
129 173
129 175
129 177
129 180
129 181
129 182
129 185
129 186
129 188
129 190
129 193
129 195
129 197
130 134
130 137
130 139
130 147
130 156
130 158
130 159
130 160
130 164
130 167
130 168
130 171
130 179
130 182
130 185
130 186
130 191
130 193
130 194
130 195
130 199
131 132
131 135
131 147
131 152
131 153
131 154
131 158
131 159
131 171
131 172
131 180
131 186
131 187
131 188
131 192
131 194
131 197
132 142
132 145
132 157
132 159
132 160
132 165
132 166
132 168
132 169
132 171
132 172
132 173
132 174
132 177
132 183
132 188
132 191
132 192
132 194
132 200
133 135
133 137
133 145
133 147
133 150
133 152
133 153
133 170
133 171
133 173
133 174
133 176
133 178
133 181
133 183
133 195
133 198
134 144
134 146
134 147
134 150
134 154
134 158
134 165
134 166
134 174
134 176
134 177
134 184
134 189
134 192
134 199
135 136
135 148
135 149
135 156
135 158
135 159
135 160
135 167
135 172
135 178
135 179
135 181
135 182
135 183
135 185
135 189
135 192
136 139
136 140
136 144
136 146
136 153
136 158
136 160
136 168
136 171
136 173
136 179
136 180
136 186
136 196
137 142
137 143
137 147
137 148
137 150
137 154
137 164
137 165
137 167
137 168
137 170
137 178
137 184
137 185
137 186
137 189
137 194
138 158
138 160
138 162
138 163
138 165
138 169
138 170
138 173
138 177
138 180
138 181
138 192
138 193
138 194
138 198
138 199
139 143
139 153
139 155
139 156
139 164
139 179
139 182
139 183
139 188
139 189
139 190
139 192
139 193
139 196
139 197
139 199
140 147
140 151
140 152
140 158
140 159
140 162
140 164
140 167
140 172
140 176
140 180
140 182
140 186
140 190
140 195
140 196
140 199
141 149
141 153
141 163
141 165
141 167
141 168
141 173
141 175
141 181
141 182
141 191
141 192
141 194
141 195
142 154
142 158
142 161
142 167
142 169
142 171
142 173
142 177
142 187
142 189
142 190
142 191
142 192
142 199
143 148
143 160
143 161
143 171
143 185
143 190
143 195
144 145
144 155
144 156
144 162
144 164
144 172
144 173
144 179
144 180
144 183
144 185
144 186
144 187
144 193
144 197
144 198
145 146
145 149
145 150
145 152
145 157
145 159
145 162
145 168
145 181
145 185
145 188
145 189
145 190
145 191
145 194
146 151
146 156
146 158
146 163
146 164
146 166
146 168
146 170
146 178
146 179
146 185
146 192
146 193
146 194
146 199
147 152
147 159
147 168
147 171
147 174
147 179
147 180
147 182
147 184
147 185
147 187
147 190
147 193
147 194
147 196
147 200
148 152
148 155
148 165
148 173
148 179
148 180
148 181
148 184
148 186
148 187
148 192
149 153
149 157
149 161
149 171
149 172
149 175
149 176
149 179
149 180
149 182
149 183
149 190
149 191
149 193
149 194
149 195
149 196
149 198
149 199
150 152
150 155
150 157
150 158
150 159
150 160
150 166
150 167
150 174
150 175
150 179
150 182
150 183
150 187
150 191
150 192
151 152
151 155
151 160
151 161
151 174
151 182
151 185
151 190
151 195
151 196
151 197
151 198
152 155
152 157
152 160
152 176
152 177
152 179
152 184
152 192
152 196
153 160
153 161
153 163
153 178
153 183
153 184
153 197
153 200
154 156
154 165
154 167
154 169
154 172
154 182
154 188
154 189
154 196
154 197
154 198
155 160
155 163
155 170
155 173
155 174
155 188
155 190
155 192
155 194
155 197
155 200
156 158
156 162
156 163
156 164
156 165
156 168
156 184
156 185
156 186
156 188
156 189
156 190
156 192
156 199
157 160
157 161
157 164
157 166
157 170
157 177
157 179
158 160
158 161
158 162
158 163
158 175
158 177
158 178
158 183
158 185
158 188
158 190
158 199
159 161
159 163
159 166
159 167
159 176
159 183
159 187
159 190
159 191
159 194
159 196
160 167
160 179
160 180
160 181
160 184
160 187
160 188
160 190
160 192
160 198
161 163
161 170
161 176
161 184
161 185
161 187
161 199
161 200
162 172
162 176
162 178
162 182
162 185
162 189
162 190
162 198
162 200
163 165
163 168
163 169
163 171
163 172
163 174
163 179
163 180
163 185
163 187
163 191
163 195
163 196
163 200
164 167
164 168
164 179
164 180
164 181
164 184
164 186
164 189
164 194
164 197
165 172
165 173
165 175
165 177
165 178
165 180
165 185
165 187
165 188
165 191
166 168
166 170
166 173
166 174
166 175
166 184
166 193
166 194
166 198
166 199
167 180
167 185
167 189
167 200
168 170
168 173
168 180
168 187
168 199
168 200
169 170
169 178
169 180
169 187
169 188
169 189
169 191
169 193
170 179
170 180
170 184
170 192
170 195
171 172
171 175
171 178
171 180
171 181
171 182
171 194
171 196
171 197
171 198
171 200
172 178
172 180
172 185
172 190
172 199
173 180
173 183
173 187
173 189
173 197
174 176
174 177
174 179
174 194
174 196
175 181
175 186
176 179
176 181
176 185
176 197
176 199
177 178
177 180
177 187
177 188
177 189
177 193
177 199
178 179
178 187
178 191
178 192
178 193
178 197
179 190
179 195
180 186
180 190
180 197
181 185
181 187
181 193
181 200
182 183
182 186
182 192
182 196
182 200
183 185
183 186
183 187
183 194
183 197
183 199
183 200
184 188
184 191
184 192
184 194
184 200
185 193
185 196
185 198
186 193
186 197
186 199
186 200
187 190
187 198
187 199
188 192
188 198
189 193
189 194
189 196
190 193
190 196
191 196
191 197
191 200
192 194
192 197
192 199
192 200
193 197
193 199
194 196
195 200
196 197
196 199
